50 105
34 69 2
91 225 1
60 235 2
48 151 2
82 182 4
98 280 1
71 280 4
79 223 4
105 158 3
71 75 1
76 168 3
76 119 1
97 275 1
77 102 2
114 183 4
113 183 4
114 117 4
81 353 2
74 207 2
74 206 2
85 204 6
85 155 2
74 334 2
92 175 3
85 175 3
93 154 1
99 294 1
41 294 1
63 279 6
42 183 1
83 135 1
61 133 2
92 275 2
67 275 2
93 273 2
115 236 1
169 335 1
100 298 1
93 113 2
166 251 1
90 218 1
127 258 1
113 228 2
111 228 2
114 225 1
77 135 1
52 77 1
87 224 4
129 285 1
153 287 1
500 1000 
500 1000 
500 1000 
500 1000 
500 1000 
500 1000 
500 1000 
500 1000 
500 1000 
500 1000 
500 1000 
500 1000 
500 1000 
500 1000 
500 1000 
500 1000 
500 1000 
500 1000 
500 1000 
500 1000 
500 1000 
500 1000 
500 1000 
500 1000 
500 1000 
500 1000 
500 1000 
500 1000 
500 1000 
500 1000 
500 1000 
500 1000 
500 1000 
500 1000 
500 1000 
500 1000 
500 1000 
500 1000 
500 1000 
500 1000 
500 1000 
500 1000 
500 1000 
500 1000 
500 1000 
500 1000 
500 1000 
500 1000 
500 1000 
500 1000 
500 1000 
500 1000 
500 1000 
500 1000 
500 1000 
500 1000 
500 1000 
500 1000 
500 1000 
500 1000 
500 1000 
500 1000 
500 1000 
500 1000 
500 1000 
500 1000 
500 1000 
500 1000 
500 1000 
500 1000 
500 1000 
500 1000 
500 1000 
500 1000 
500 1000 
500 1000 
500 1000 
500 1000 
500 1000 
500 1000 
500 1000 
500 1000 
500 1000 
500 1000 
500 1000 
500 1000 
500 1000 
500 1000 
500 1000 
500 1000 
500 1000 
500 1000 
500 1000 
500 1000 
500 1000 
500 1000 
500 1000 
500 1000 
500 1000 
500 1000 
500 1000 
500 1000 
500 1000 
500 1000 
500 1000 
